Route 1: 105 171 63 136 122 188 11 4 15 116 107 35 183 3 189 195 155 175 147 146 106 161 197 54 186 159 184 14 19 9 23 89 179 142 196 28
Route 2: 99 70 46 114 176 111 157 137 64 34 162 94 60 173 30 108 133 16 72 24 61 92 178 66 117 82 17 170 165 58 160 49 52 7 200
Route 3: 50 67 132 42 144 6 138 2 143 128 126 90 25 71 5 127 145 48 193 20 194 190 80 158 101 91 29 148 44 47 83 62 36 68
Route 4: 167 40 39 119 38 166 102 98 76 151 8 85 135 78 191 150 43 22 134 177 87 163 181 31 97 69 172 75 168 154 51 41 21 65 199
Route 5: 121 174 164 198 26 55 180 37 115 18 57 113 131 169 192 84 53 56 185 27 140 123 124 1 104 149 152 109 95 187 129 10 153
Route 6: 96 139 110 103 74 100 59 93 86 182 33 13 12 73 32 125 141 81 130 112 118 156 79
Route 7: 45 77 120 88
Vehicles: 7
Distance: 2735.10
